0
7
5
12
6
0
0
0
0
0
0
20
26
18
33
0
0
15
10
0
0
9
12
0
0
6
41
0
0
6
0
0
0
0
15
0
0
0
9
0
0
0
14
17
0
10
7
0
0
0
20
15
0
0
0
7
10
0
19
0
0
79
6
0
0
6
9
16
0
15
0
8
21
0
9
0
0
0
0
10
27
16
0
0
16
0
20
12
10
12
0
0
8
15
0
0
7
0
17
0
